
Gurobi 11.0.0 (linux64) logging started Tue Sep 17 02:46:31 2024

Set parameter LogFile to value "gurobi.log"
Set parameter InfUnbdInfo to value 1
Gurobi Optimizer version 11.0.0 build v11.0.0rc2 (linux64 - "Ubuntu 22.04.4 LTS")

CPU model: AMD EPYC 7V13 64-Core Processor, instruction set [SSE2|AVX|AVX2]
Thread count: 128 physical cores, 128 logical processors, using up to 32 threads

Optimize a model with 48 rows, 209 columns and 115 nonzeros
Model fingerprint: 0x2110c307
Model has 177 quadratic constraints
Model has 1 general constraint
Variable types: 55 continuous, 154 integer (0 binary)
Coefficient statistics:
  Matrix range     [1e+00, 2e+05]
  QMatrix range    [1e+00, 2e+05]
  QLMatrix range   [1e+00, 2e+05]
  Objective range  [1e+00, 1e+00]
  Bounds range     [1e+00, 3e+10]
  RHS range        [1e+00, 2e+06]
  QRHS range       [1e+00, 2e+06]
Warning: Model contains large bounds
         Consider reformulating model or setting NumericFocus parameter
         to avoid numerical issues.
Using branch priorities (all 0).
Presolve added 56 rows and 0 columns
Presolve removed 0 rows and 44 columns
Presolve time: 0.00s
Presolved: 551 rows, 204 columns, 1462 nonzeros
Presolved model has 2 SOS constraint(s)
Presolved model has 86 bilinear constraint(s)
Warning: Model contains variables with very large bounds participating
         in product terms.
         Presolve was not able to compute smaller bounds for these variables.
         Consider bounding these variables or reformulating the model.


Solving non-convex MIQCP

Variable types: 60 continuous, 144 integer (41 binary)

Root relaxation: objective 1.639032e+03, 174 iterations, 0.00 seconds (0.00 work units)

    Nodes    |    Current Node    |     Objective Bounds      |     Work
 Expl Unexpl |  Obj  Depth IntInf | Incumbent    BestBd   Gap | It/Node Time

     0     0 1639.03178    0   70          - 1639.03178      -     -    0s
     0     0 1641.03945    0   72          - 1641.03945      -     -    0s
H    0     0                    1289038.0000 1641.03945   100%     -    0s
H    0     0                    816438.00000 1641.03945   100%     -    0s
     0     0 1677.10875    0   89 816438.000 1677.10875   100%     -    0s
H    0     0                    810294.00000 1688.89955   100%     -    0s
H    0     0                    809884.00000 1688.89955   100%     -    0s
     0     0 1695.56224    0   94 809884.000 1695.56224   100%     -    0s
     0     0 2443.24228    0   84 809884.000 2443.24228   100%     -    0s
     0     0 2455.43794    0   70 809884.000 2455.43794   100%     -    0s
H    0     0                    342887.00000 2480.93813  99.3%     -    0s
H    0     0                    342497.00000 2480.93813  99.3%     -    0s
     0     0 2480.93813    0  101 342497.000 2480.93813  99.3%     -    0s
     0     0 2524.39636    0   80 342497.000 2524.39636  99.3%     -    0s
H    0     0                    330338.00000 2633.68411  99.2%     -    0s
     0     0 2633.68411    0  101 330338.000 2633.68411  99.2%     -    0s
     0     0 2633.68411    0  101 330338.000 2633.68411  99.2%     -    0s
     0     0 2633.68411    0  106 330338.000 2633.68411  99.2%     -    0s
     0     0 2678.40796    0   98 330338.000 2678.40796  99.2%     -    0s
     0     0 2678.40796    0   95 330338.000 2678.40796  99.2%     -    0s
H    0     0                    90488.000000 2678.40796  97.0%     -    0s
     0     0 2678.40796    0   95 90488.0000 2678.40796  97.0%     -    0s
     0     0 2678.40796    0  102 90488.0000 2678.40796  97.0%     -    0s
     0     0 2684.16142    0   96 90488.0000 2684.16142  97.0%     -    0s
     0     0 2684.16142    0  108 90488.0000 2684.16142  97.0%     -    0s
     0     0 3217.16132    0  112 90488.0000 3217.16132  96.4%     -    0s
     0     0 3777.91993    0  110 90488.0000 3777.91993  95.8%     -    0s
     0     0 3777.91993    0  110 90488.0000 3777.91993  95.8%     -    0s
     0     0 5398.46773    0   99 90488.0000 5398.46773  94.0%     -    0s
     0     0 11564.6555    0   76 90488.0000 11564.6555  87.2%     -    0s
H    0     0                    87406.000000 11564.6555  86.8%     -    0s
     0     0 14518.3276    0   71 87406.0000 14518.3276  83.4%     -    0s
     0     0 17029.7540    0   83 87406.0000 17029.7540  80.5%     -    0s
     0     0 17029.7540    0   71 87406.0000 17029.7540  80.5%     -    0s
     0     0 80796.0047    0   45 87406.0000 80796.0047  7.56%     -    0s
     0     0 80804.9621    0   58 87406.0000 80804.9621  7.55%     -    0s
H    0     0                    86753.000000 80805.9290  6.86%     -    0s
     0     0 80805.9290    0   58 86753.0000 80805.9290  6.86%     -    0s
     0     0 80813.4332    0   60 86753.0000 80813.4332  6.85%     -    0s
     0     0 80822.8491    0   60 86753.0000 80822.8491  6.84%     -    0s
     0     0 80822.8491    0   63 86753.0000 80822.8491  6.84%     -    0s
     0     0 80829.7630    0   69 86753.0000 80829.7630  6.83%     -    0s
     0     0 80829.7630    0   64 86753.0000 80829.7630  6.83%     -    0s
     0     0 80830.4817    0   66 86753.0000 80830.4817  6.83%     -    0s
     0     0 80830.4817    0   61 86753.0000 80830.4817  6.83%     -    0s
     0     0 80830.4817    0   64 86753.0000 80830.4817  6.83%     -    0s
     0     0 80830.7380    0   64 86753.0000 80830.7380  6.83%     -    0s
     0     0 80830.7380    0   64 86753.0000 80830.7380  6.83%     -    0s
H    0     0                    86570.000000 80831.3994  6.63%     -    0s
     0     0 80831.3994    0   64 86570.0000 80831.3994  6.63%     -    0s
     0     0 80833.7048    0   64 86570.0000 80833.7048  6.63%     -    0s
     0     0 80846.3909    0   64 86570.0000 80846.3909  6.61%     -    0s
     0     0 80862.0029    0   63 86570.0000 80862.0029  6.59%     -    0s
H    0     0                    86566.000000 80862.0029  6.59%     -    0s
     0     0 80862.0029    0   40 86566.0000 80862.0029  6.59%     -    0s
     0     0 80862.0029    0   54 86566.0000 80862.0029  6.59%     -    0s
     0     0 80862.0029    0   61 86566.0000 80862.0029  6.59%     -    0s
     0     0 80862.0029    0   58 86566.0000 80862.0029  6.59%     -    0s
     0     0 80862.0029    0   59 86566.0000 80862.0029  6.59%     -    0s
     0     0 80862.0029    0   61 86566.0000 80862.0029  6.59%     -    0s
     0     0 80862.0029    0   62 86566.0000 80862.0029  6.59%     -    0s
     0     0 80862.0029    0   63 86566.0000 80862.0029  6.59%     -    0s
     0     0 80862.0029    0   53 86566.0000 80862.0029  6.59%     -    0s
H    0     0                    86560.000000 80862.0029  6.58%     -    0s
     0     0 80862.0029    0   57 86560.0000 80862.0029  6.58%     -    0s
     0     0 80862.0029    0   58 86560.0000 80862.0029  6.58%     -    0s
     0     0 80862.0029    0   58 86560.0000 80862.0029  6.58%     -    0s
     0     0 80862.0029    0   57 86560.0000 80862.0029  6.58%     -    0s
     0     0 80862.0029    0   57 86560.0000 80862.0029  6.58%     -    0s
     0     2 80862.0029    0   57 86560.0000 80862.0029  6.58%     -    1s

Cutting planes:
  Gomory: 7
  MIR: 27
  Zero half: 2
  RLT: 21

Explored 734 nodes (4297 simplex iterations) in 1.49 seconds (0.18 work units)
Thread count was 32 (of 128 available processors)

Solution count 10: 86560 86566 86570 ... 809884

Optimal solution found (tolerance 1.00e-10)
Best objective 8.656000000000e+04, best bound 8.656000000000e+04, gap 0.0000%
